-18639.0 -19939.0 
-19552.0 -19443.0 
-19552.0 -19443.0 
-19025.0 -19935.0 
-19158.0 -19858.0 
-19544.0 -19561.0 
-19545.0 -19463.0 
-19028.0 -19913.0 
-19515.0 -19604.0 
-19426.0 -19730.0 
-19085.0 -19884.0 
-19256.0 -19804.0 
-19231.0 -19843.0 
-19085.0 -19884.0 
-19427.0 -19685.0 
-19330.0 -19772.0 
-19347.0 -19754.0 
-19544.0 -19561.0 
-19301.0 -19782.0 
-19487.0 -19609.0 
-19301.0 -19782.0 
-19437.0 -19655.0 
-19435.0 -19681.0 
-19374.0 -19736.0 
-19353.0 -19740.0 
-19244.0 -19811.0 
-19231.0 -19843.0 
-19545.0 -19463.0 
-19243.0 -19824.0 
-19243.0 -19824.0 
-19448.0 -19635.0 
-19465.0 -19614.0 
-19446.0 -19647.0 
-19458.0 -19624.0 
-19458.0 -19624.0 
-19448.0 -19635.0 
-19445.0 -19653.0 
-19460.0 -19617.0 
-19374.0 -19736.0 
-19368.0 -19737.0 
-19465.0 -19614.0 
-19446.0 -19647.0 
-19426.0 -19730.0 
-19368.0 -19737.0 
-19435.0 -19681.0 
-19460.0 -19617.0 
-19445.0 -19653.0 
-19458.0 -19624.0 
-19445.0 -19653.0 
-19458.0 -19624.0 
-19458.0 -19624.0 
-19458.0 -19624.0 
-19458.0 -19624.0 
-19458.0 -19624.0 
-19445.0 -19653.0 
-19458.0 -19624.0 
-19458.0 -19624.0 
-19458.0 -19624.0 
-19445.0 -19653.0 
-19458.0 -19624.0 
-19458.0 -19624.0 
-19458.0 -19624.0 
-19458.0 -19624.0 
-19445.0 -19653.0 
-19458.0 -19624.0 
-19458.0 -19624.0 
-19458.0 -19624.0 
-19458.0 -19624.0 
-19458.0 -19624.0 
-19458.0 -19624.0 
-19458.0 -19624.0 
-19458.0 -19624.0 
-19445.0 -19653.0 
-19445.0 -19653.0 
-19458.0 -19624.0 
-19458.0 -19624.0 
-19458.0 -19624.0 
-19458.0 -19624.0 
-19445.0 -19653.0 
-19458.0 -19624.0 
-19458.0 -19624.0 
-19458.0 -19624.0 
-19458.0 -19624.0 
-19458.0 -19624.0 
-19458.0 -19624.0 
-19445.0 -19653.0 
-19458.0 -19624.0 
-19458.0 -19624.0 
-19445.0 -19653.0 
-19458.0 -19624.0 
-19458.0 -19624.0 
-19458.0 -19624.0 
-19458.0 -19624.0 
-19458.0 -19624.0 
-19458.0 -19624.0 
-19458.0 -19624.0 
-19445.0 -19653.0 
-19458.0 -19624.0 
-19458.0 -19624.0 
-19458.0 -19624.0 
